745.21,50.53,57.71
879.11,42.83,48.92
860.74,43.75,49.96
902.16,41.74,47.67
831.72,45.27,51.7
776.43,48.49,55.39
821.29,45.85,52.36
766.87,49.1,56.08
837.59,44.95,51.34
724.94,51.94,59.32
778.5,48.37,55.24
862.21,43.67,49.88
924.02,40.75,46.54
839.2,44.87,51.24
847.92,44.41,50.72
734.05,51.29,58.58
888.97,42.36,48.37
677.94,55.54,63.43
808.33,46.58,53.2
852.77,44.15,50.43
